Minimize
 obj: 0 X_0_1
Subject To
 out_0:
  + 1 X_0_1 + 1 X_0_2 + 1 X_0_3 + 1 X_0_4 + 1 X_0_5 + 1 X_0_6 + 1 X_0_7 + 1 X_0_8
  + 1 X_0_9
  = 1
 in_0:
  + 1 X_1_0 + 1 X_2_0 + 1 X_3_0 + 1 X_4_0 + 1 X_5_0 + 1 X_6_0 + 1 X_7_0 + 1 X_8_0
  + 1 X_9_0
  = 1
 out_1:
  + 1 X_1_0 + 1 X_1_2 + 1 X_1_3 + 1 X_1_4 + 1 X_1_5 + 1 X_1_6 + 1 X_1_7 + 1 X_1_8
  + 1 X_1_9
  = 1
 in_1:
  + 1 X_0_1 + 1 X_2_1 + 1 X_3_1 + 1 X_4_1 + 1 X_5_1 + 1 X_6_1 + 1 X_7_1 + 1 X_8_1
  + 1 X_9_1
  = 1
 out_2:
  + 1 X_2_0 + 1 X_2_1 + 1 X_2_3 + 1 X_2_4 + 1 X_2_5 + 1 X_2_6 + 1 X_2_7 + 1 X_2_8
  + 1 X_2_9
  = 1
 in_2:
  + 1 X_0_2 + 1 X_1_2 + 1 X_3_2 + 1 X_4_2 + 1 X_5_2 + 1 X_6_2 + 1 X_7_2 + 1 X_8_2
  + 1 X_9_2
  = 1
 out_3:
  + 1 X_3_0 + 1 X_3_1 + 1 X_3_2 + 1 X_3_4 + 1 X_3_5 + 1 X_3_6 + 1 X_3_7 + 1 X_3_8
  + 1 X_3_9
  = 1
 in_3:
  + 1 X_0_3 + 1 X_1_3 + 1 X_2_3 + 1 X_4_3 + 1 X_5_3 + 1 X_6_3 + 1 X_7_3 + 1 X_8_3
  + 1 X_9_3
  = 1
 out_4:
  + 1 X_4_0 + 1 X_4_1 + 1 X_4_2 + 1 X_4_3 + 1 X_4_5 + 1 X_4_6 + 1 X_4_7 + 1 X_4_8
  + 1 X_4_9
  = 1
 in_4:
  + 1 X_0_4 + 1 X_1_4 + 1 X_2_4 + 1 X_3_4 + 1 X_5_4 + 1 X_6_4 + 1 X_7_4 + 1 X_8_4
  + 1 X_9_4
  = 1
 out_5:
  + 1 X_5_0 + 1 X_5_1 + 1 X_5_2 + 1 X_5_3 + 1 X_5_4 + 1 X_5_6 + 1 X_5_7 + 1 X_5_8
  + 1 X_5_9
  = 1
 in_5:
  + 1 X_0_5 + 1 X_1_5 + 1 X_2_5 + 1 X_3_5 + 1 X_4_5 + 1 X_6_5 + 1 X_7_5 + 1 X_8_5
  + 1 X_9_5
  = 1
 out_6:
  + 1 X_6_0 + 1 X_6_1 + 1 X_6_2 + 1 X_6_3 + 1 X_6_4 + 1 X_6_5 + 1 X_6_7 + 1 X_6_8
  + 1 X_6_9
  = 1
 in_6:
  + 1 X_0_6 + 1 X_1_6 + 1 X_2_6 + 1 X_3_6 + 1 X_4_6 + 1 X_5_6 + 1 X_7_6 + 1 X_8_6
  + 1 X_9_6
  = 1
 out_7:
  + 1 X_7_0 + 1 X_7_1 + 1 X_7_2 + 1 X_7_3 + 1 X_7_4 + 1 X_7_5 + 1 X_7_6 + 1 X_7_8
  + 1 X_7_9
  = 1
 in_7:
  + 1 X_0_7 + 1 X_1_7 + 1 X_2_7 + 1 X_3_7 + 1 X_4_7 + 1 X_5_7 + 1 X_6_7 + 1 X_8_7
  + 1 X_9_7
  = 1
 out_8:
  + 1 X_8_0 + 1 X_8_1 + 1 X_8_2 + 1 X_8_3 + 1 X_8_4 + 1 X_8_5 + 1 X_8_6 + 1 X_8_7
  + 1 X_8_9
  = 1
 in_8:
  + 1 X_0_8 + 1 X_1_8 + 1 X_2_8 + 1 X_3_8 + 1 X_4_8 + 1 X_5_8 + 1 X_6_8 + 1 X_7_8
  + 1 X_9_8
  = 1
 out_9:
  + 1 X_9_0 + 1 X_9_1 + 1 X_9_2 + 1 X_9_3 + 1 X_9_4 + 1 X_9_5 + 1 X_9_6 + 1 X_9_7
  + 1 X_9_8
  = 1
 in_9:
  + 1 X_0_9 + 1 X_1_9 + 1 X_2_9 + 1 X_3_9 + 1 X_4_9 + 1 X_5_9 + 1 X_6_9 + 1 X_7_9
  + 1 X_8_9
  = 1
 mtz_1_2:
  + 1 U1 - 1 U2 + 9 X_1_2
  <= 8
 mtz_1_3:
  + 1 U1 - 1 U3 + 9 X_1_3
  <= 8
 mtz_1_4:
  + 1 U1 - 1 U4 + 9 X_1_4
  <= 8
 mtz_1_5:
  + 1 U1 - 1 U5 + 9 X_1_5
  <= 8
 mtz_1_6:
  + 1 U1 - 1 U6 + 9 X_1_6
  <= 8
 mtz_1_7:
  + 1 U1 - 1 U7 + 9 X_1_7
  <= 8
 mtz_1_8:
  + 1 U1 - 1 U8 + 9 X_1_8
  <= 8
 mtz_1_9:
  + 1 U1 - 1 U9 + 9 X_1_9
  <= 8
 mtz_2_1:
  + 1 U2 - 1 U1 + 9 X_2_1
  <= 8
 mtz_2_3:
  + 1 U2 - 1 U3 + 9 X_2_3
  <= 8
 mtz_2_4:
  + 1 U2 - 1 U4 + 9 X_2_4
  <= 8
 mtz_2_5:
  + 1 U2 - 1 U5 + 9 X_2_5
  <= 8
 mtz_2_6:
  + 1 U2 - 1 U6 + 9 X_2_6
  <= 8
 mtz_2_7:
  + 1 U2 - 1 U7 + 9 X_2_7
  <= 8
 mtz_2_8:
  + 1 U2 - 1 U8 + 9 X_2_8
  <= 8
 mtz_2_9:
  + 1 U2 - 1 U9 + 9 X_2_9
  <= 8
 mtz_3_1:
  + 1 U3 - 1 U1 + 9 X_3_1
  <= 8
 mtz_3_2:
  + 1 U3 - 1 U2 + 9 X_3_2
  <= 8
 mtz_3_4:
  + 1 U3 - 1 U4 + 9 X_3_4
  <= 8
 mtz_3_5:
  + 1 U3 - 1 U5 + 9 X_3_5
  <= 8
 mtz_3_6:
  + 1 U3 - 1 U6 + 9 X_3_6
  <= 8
 mtz_3_7:
  + 1 U3 - 1 U7 + 9 X_3_7
  <= 8
 mtz_3_8:
  + 1 U3 - 1 U8 + 9 X_3_8
  <= 8
 mtz_3_9:
  + 1 U3 - 1 U9 + 9 X_3_9
  <= 8
 mtz_4_1:
  + 1 U4 - 1 U1 + 9 X_4_1
  <= 8
 mtz_4_2:
  + 1 U4 - 1 U2 + 9 X_4_2
  <= 8
 mtz_4_3:
  + 1 U4 - 1 U3 + 9 X_4_3
  <= 8
 mtz_4_5:
  + 1 U4 - 1 U5 + 9 X_4_5
  <= 8
 mtz_4_6:
  + 1 U4 - 1 U6 + 9 X_4_6
  <= 8
 mtz_4_7:
  + 1 U4 - 1 U7 + 9 X_4_7
  <= 8
 mtz_4_8:
  + 1 U4 - 1 U8 + 9 X_4_8
  <= 8
 mtz_4_9:
  + 1 U4 - 1 U9 + 9 X_4_9
  <= 8
 mtz_5_1:
  + 1 U5 - 1 U1 + 9 X_5_1
  <= 8
 mtz_5_2:
  + 1 U5 - 1 U2 + 9 X_5_2
  <= 8
 mtz_5_3:
  + 1 U5 - 1 U3 + 9 X_5_3
  <= 8
 mtz_5_4:
  + 1 U5 - 1 U4 + 9 X_5_4
  <= 8
 mtz_5_6:
  + 1 U5 - 1 U6 + 9 X_5_6
  <= 8
 mtz_5_7:
  + 1 U5 - 1 U7 + 9 X_5_7
  <= 8
 mtz_5_8:
  + 1 U5 - 1 U8 + 9 X_5_8
  <= 8
 mtz_5_9:
  + 1 U5 - 1 U9 + 9 X_5_9
  <= 8
 mtz_6_1:
  + 1 U6 - 1 U1 + 9 X_6_1
  <= 8
 mtz_6_2:
  + 1 U6 - 1 U2 + 9 X_6_2
  <= 8
 mtz_6_3:
  + 1 U6 - 1 U3 + 9 X_6_3
  <= 8
 mtz_6_4:
  + 1 U6 - 1 U4 + 9 X_6_4
  <= 8
 mtz_6_5:
  + 1 U6 - 1 U5 + 9 X_6_5
  <= 8
 mtz_6_7:
  + 1 U6 - 1 U7 + 9 X_6_7
  <= 8
 mtz_6_8:
  + 1 U6 - 1 U8 + 9 X_6_8
  <= 8
 mtz_6_9:
  + 1 U6 - 1 U9 + 9 X_6_9
  <= 8
 mtz_7_1:
  + 1 U7 - 1 U1 + 9 X_7_1
  <= 8
 mtz_7_2:
  + 1 U7 - 1 U2 + 9 X_7_2
  <= 8
 mtz_7_3:
  + 1 U7 - 1 U3 + 9 X_7_3
  <= 8
 mtz_7_4:
  + 1 U7 - 1 U4 + 9 X_7_4
  <= 8
 mtz_7_5:
  + 1 U7 - 1 U5 + 9 X_7_5
  <= 8
 mtz_7_6:
  + 1 U7 - 1 U6 + 9 X_7_6
  <= 8
 mtz_7_8:
  + 1 U7 - 1 U8 + 9 X_7_8
  <= 8
 mtz_7_9:
  + 1 U7 - 1 U9 + 9 X_7_9
  <= 8
 mtz_8_1:
  + 1 U8 - 1 U1 + 9 X_8_1
  <= 8
 mtz_8_2:
  + 1 U8 - 1 U2 + 9 X_8_2
  <= 8
 mtz_8_3:
  + 1 U8 - 1 U3 + 9 X_8_3
  <= 8
 mtz_8_4:
  + 1 U8 - 1 U4 + 9 X_8_4
  <= 8
 mtz_8_5:
  + 1 U8 - 1 U5 + 9 X_8_5
  <= 8
 mtz_8_6:
  + 1 U8 - 1 U6 + 9 X_8_6
  <= 8
 mtz_8_7:
  + 1 U8 - 1 U7 + 9 X_8_7
  <= 8
 mtz_8_9:
  + 1 U8 - 1 U9 + 9 X_8_9
  <= 8
 mtz_9_1:
  + 1 U9 - 1 U1 + 9 X_9_1
  <= 8
 mtz_9_2:
  + 1 U9 - 1 U2 + 9 X_9_2
  <= 8
 mtz_9_3:
  + 1 U9 - 1 U3 + 9 X_9_3
  <= 8
 mtz_9_4:
  + 1 U9 - 1 U4 + 9 X_9_4
  <= 8
 mtz_9_5:
  + 1 U9 - 1 U5 + 9 X_9_5
  <= 8
 mtz_9_6:
  + 1 U9 - 1 U6 + 9 X_9_6
  <= 8
 mtz_9_7:
  + 1 U9 - 1 U7 + 9 X_9_7
  <= 8
 mtz_9_8:
  + 1 U9 - 1 U8 + 9 X_9_8
  <= 8
 obj1:
  + 946 X_0_1 + 974 X_0_2 + 734 X_0_3 + 796 X_0_4 + 58 X_0_5 + 702 X_0_6 + 344 X_0_7 + 472 X_0_8
  + 515 X_0_9 + 946 X_1_0 + 77 X_1_2 + 647 X_1_3 + 292 X_1_4 + 1004 X_1_5 + 466 X_1_6 + 1214 X_1_7
  + 954 X_1_8 + 809 X_1_9 + 974 X_2_0 + 77 X_2_1 + 610 X_2_3 + 259 X_2_4 + 1033 X_2_5 + 437 X_2_6
  + 1227 X_2_7 + 944 X_2_8 + 871 X_2_9 + 734 X_3_0 + 647 X_3_1 + 610 X_3_2 + 355 X_3_4 + 783 X_3_5
  + 188 X_3_6 + 821 X_3_7 + 428 X_3_8 + 979 X_3_9 + 796 X_4_0 + 292 X_4_1 + 259 X_4_2 + 355 X_4_3
  + 854 X_4_5 + 177 X_4_6 + 1006 X_4_7 + 692 X_4_8 + 830 X_4_9 + 58 X_5_0 + 1004 X_5_1 + 1033 X_5_2
  + 783 X_5_3 + 854 X_5_4 + 757 X_5_6 + 313 X_5_7 + 497 X_5_8 + 541 X_5_9 + 702 X_6_0 + 466 X_6_1
  + 437 X_6_2 + 188 X_6_3 + 177 X_6_4 + 757 X_6_5 + 866 X_6_7 + 524 X_6_8 + 848 X_6_9 + 344 X_7_0
  + 1214 X_7_1 + 1227 X_7_2 + 821 X_7_3 + 1006 X_7_4 + 313 X_7_5 + 866 X_7_6 + 413 X_7_8 + 854 X_7_9
  + 472 X_8_0 + 954 X_8_1 + 944 X_8_2 + 428 X_8_3 + 692 X_8_4 + 497 X_8_5 + 524 X_8_6 + 413 X_8_7
  + 913 X_8_9 + 515 X_9_0 + 809 X_9_1 + 871 X_9_2 + 979 X_9_3 + 830 X_9_4 + 541 X_9_5 + 848 X_9_6
  + 854 X_9_7 + 913 X_9_8
  <= 1
 obj2:
  + 450 X_0_1 + 1091 X_0_2 + 1145 X_0_3 + 429 X_0_4 + 570 X_0_5 + 964 X_0_6 + 632 X_0_7 + 904 X_0_8
  + 913 X_0_9 + 450 X_1_0 + 652 X_1_2 + 696 X_1_3 + 218 X_1_4 + 140 X_1_5 + 539 X_1_6 + 291 X_1_7
  + 715 X_1_8 + 655 X_1_9 + 1091 X_2_0 + 652 X_2_1 + 125 X_2_3 + 697 X_2_4 + 521 X_2_5 + 148 X_2_6
  + 503 X_2_7 + 720 X_2_8 + 581 X_2_9 + 1145 X_3_0 + 696 X_3_1 + 125 X_3_2 + 774 X_3_4 + 578 X_3_5
  + 258 X_3_6 + 593 X_3_7 + 843 X_3_8 + 706 X_3_9 + 429 X_4_0 + 218 X_4_1 + 697 X_4_2 + 774 X_4_3
  + 224 X_4_5 + 557 X_4_6 + 206 X_4_7 + 534 X_4_8 + 507 X_4_9 + 570 X_5_0 + 140 X_5_1 + 521 X_5_2
  + 578 X_5_3 + 224 X_5_4 + 402 X_5_6 + 181 X_5_7 + 622 X_5_8 + 544 X_5_9 + 964 X_6_0 + 539 X_6_1
  + 148 X_6_2 + 258 X_6_3 + 557 X_6_4 + 402 X_6_5 + 358 X_6_7 + 591 X_6_8 + 456 X_6_9 + 632 X_7_0
  + 291 X_7_1 + 503 X_7_2 + 593 X_7_3 + 206 X_7_4 + 181 X_7_5 + 358 X_7_6 + 441 X_7_8 + 366 X_7_9
  + 904 X_8_0 + 715 X_8_1 + 720 X_8_2 + 843 X_8_3 + 534 X_8_4 + 622 X_8_5 + 591 X_8_6 + 441 X_8_7
  + 139 X_8_9 + 913 X_9_0 + 655 X_9_1 + 581 X_9_2 + 706 X_9_3 + 507 X_9_4 + 544 X_9_5 + 456 X_9_6
  + 366 X_9_7 + 139 X_9_8
  <= 2
 obj3:
  + 922 X_0_1 + 744 X_0_2 + 330 X_0_3 + 796 X_0_4 + 172 X_0_5 + 165 X_0_6 + 382 X_0_7 + 784 X_0_8
  + 543 X_0_9 + 922 X_1_0 + 201 X_1_2 + 671 X_1_3 + 817 X_1_4 + 854 X_1_5 + 759 X_1_6 + 549 X_1_7
  + 527 X_1_8 + 460 X_1_9 + 744 X_2_0 + 201 X_2_1 + 473 X_2_3 + 804 X_2_4 + 661 X_2_5 + 579 X_2_6
  + 363 X_2_7 + 541 X_2_8 + 366 X_2_9 + 330 X_3_0 + 671 X_3_1 + 473 X_3_2 + 859 X_3_4 + 196 X_3_5
  + 189 X_3_6 + 152 X_3_7 + 728 X_3_8 + 442 X_3_9 + 796 X_4_0 + 817 X_4_1 + 804 X_4_2 + 859 X_4_3
  + 890 X_4_5 + 745 X_4_6 + 731 X_4_7 + 294 X_4_8 + 469 X_4_9 + 172 X_5_0 + 854 X_5_1 + 661 X_5_2
  + 196 X_5_3 + 890 X_5_4 + 147 X_5_6 + 307 X_5_7 + 822 X_5_8 + 549 X_5_9 + 165 X_6_0 + 759 X_6_1
  + 579 X_6_2 + 189 X_6_3 + 745 X_6_4 + 147 X_6_5 + 217 X_6_7 + 676 X_6_8 + 410 X_6_9 + 382 X_7_0
  + 549 X_7_1 + 363 X_7_2 + 152 X_7_3 + 731 X_7_4 + 307 X_7_5 + 217 X_7_6 + 579 X_7_8 + 293 X_7_9
  + 784 X_8_0 + 527 X_8_1 + 541 X_8_2 + 728 X_8_3 + 294 X_8_4 + 822 X_8_5 + 676 X_8_6 + 579 X_8_7
  + 286 X_8_9 + 543 X_9_0 + 460 X_9_1 + 366 X_9_2 + 442 X_9_3 + 469 X_9_4 + 549 X_9_5 + 410 X_9_6
  + 293 X_9_7 + 286 X_9_8
  <= 3
 obj4:
  + 830 X_0_1 + 723 X_0_2 + 355 X_0_3 + 228 X_0_4 + 360 X_0_5 + 777 X_0_6 + 556 X_0_7 + 836 X_0_8
  + 672 X_0_9 + 830 X_1_0 + 592 X_1_2 + 485 X_1_3 + 926 X_1_4 + 487 X_1_5 + 226 X_1_6 + 489 X_1_7
  + 61 X_1_8 + 422 X_1_9 + 723 X_2_0 + 592 X_2_1 + 592 X_2_3 + 931 X_2_4 + 453 X_2_5 + 750 X_2_6
  + 196 X_2_7 + 646 X_2_8 + 846 X_2_9 + 355 X_3_0 + 485 X_3_1 + 592 X_3_2 + 447 X_3_4 + 146 X_3_5
  + 424 X_3_6 + 395 X_3_7 + 484 X_3_8 + 359 X_3_9 + 228 X_4_0 + 926 X_4_1 + 931 X_4_2 + 447 X_4_3
  + 516 X_4_5 + 818 X_4_6 + 751 X_4_7 + 917 X_4_8 + 661 X_4_9 + 360 X_5_0 + 487 X_5_1 + 453 X_5_2
  + 146 X_5_3 + 516 X_5_4 + 494 X_5_6 + 257 X_5_7 + 504 X_5_8 + 480 X_5_9 + 777 X_6_0 + 226 X_6_1
  + 750 X_6_2 + 424 X_6_3 + 818 X_6_4 + 494 X_6_5 + 602 X_6_7 + 172 X_6_8 + 211 X_6_9 + 556 X_7_0
  + 489 X_7_1 + 196 X_7_2 + 395 X_7_3 + 751 X_7_4 + 257 X_7_5 + 602 X_7_6 + 533 X_7_8 + 668 X_7_9
  + 836 X_8_0 + 61 X_8_1 + 646 X_8_2 + 484 X_8_3 + 917 X_8_4 + 504 X_8_5 + 172 X_8_6 + 533 X_8_7
  + 377 X_8_9 + 672 X_9_0 + 422 X_9_1 + 846 X_9_2 + 359 X_9_3 + 661 X_9_4 + 480 X_9_5 + 211 X_9_6
  + 668 X_9_7 + 377 X_9_8
  <= 4
 obj5:
  + 808 X_0_1 + 305 X_0_2 + 688 X_0_3 + 348 X_0_4 + 129 X_0_5 + 235 X_0_6 + 915 X_0_7 + 544 X_0_8
  + 551 X_0_9 + 808 X_1_0 + 656 X_1_2 + 443 X_1_3 + 829 X_1_4 + 784 X_1_5 + 649 X_1_6 + 229 X_1_7
  + 318 X_1_8 + 774 X_1_9 + 305 X_2_0 + 656 X_2_1 + 406 X_2_3 + 596 X_2_4 + 195 X_2_5 + 389 X_2_6
  + 827 X_2_7 + 340 X_2_8 + 271 X_2_9 + 688 X_3_0 + 443 X_3_1 + 406 X_3_2 + 891 X_3_4 + 598 X_3_5
  + 664 X_3_6 + 669 X_3_7 + 238 X_3_8 + 376 X_3_9 + 348 X_4_0 + 829 X_4_1 + 596 X_4_2 + 891 X_4_3
  + 469 X_4_5 + 226 X_4_6 + 846 X_4_7 + 678 X_4_8 + 866 X_4_9 + 129 X_5_0 + 784 X_5_1 + 195 X_5_2
  + 598 X_5_3 + 469 X_5_4 + 314 X_5_6 + 921 X_5_7 + 490 X_5_8 + 424 X_5_9 + 235 X_6_0 + 649 X_6_1
  + 389 X_6_2 + 664 X_6_3 + 226 X_6_4 + 314 X_6_5 + 715 X_6_7 + 458 X_6_8 + 661 X_6_9 + 915 X_7_0
  + 229 X_7_1 + 827 X_7_2 + 669 X_7_3 + 846 X_7_4 + 921 X_7_5 + 715 X_7_6 + 512 X_7_8 + 982 X_7_9
  + 544 X_8_0 + 318 X_8_1 + 340 X_8_2 + 238 X_8_3 + 678 X_8_4 + 490 X_8_5 + 458 X_8_6 + 512 X_8_7
  + 470 X_8_9 + 551 X_9_0 + 774 X_9_1 + 271 X_9_2 + 376 X_9_3 + 866 X_9_4 + 424 X_9_5 + 661 X_9_6
  + 982 X_9_7 + 470 X_9_8
  <= 5
 obj6:
  + 285 X_0_1 + 366 X_0_2 + 323 X_0_3 + 362 X_0_4 + 40 X_0_5 + 427 X_0_6 + 109 X_0_7 + 258 X_0_8
  + 462 X_0_9 + 285 X_1_0 + 542 X_1_2 + 217 X_1_3 + 255 X_1_4 + 325 X_1_5 + 474 X_1_6 + 203 X_1_7
  + 503 X_1_8 + 643 X_1_9 + 366 X_2_0 + 542 X_2_1 + 400 X_2_3 + 404 X_2_4 + 349 X_2_5 + 220 X_2_6
  + 360 X_2_7 + 523 X_2_8 + 101 X_2_9 + 323 X_3_0 + 217 X_3_1 + 400 X_3_2 + 43 X_3_4 + 351 X_3_5
  + 271 X_3_6 + 215 X_3_7 + 581 X_3_8 + 492 X_3_9 + 362 X_4_0 + 255 X_4_1 + 404 X_4_2 + 43 X_4_3
  + 388 X_4_5 + 253 X_4_6 + 255 X_4_7 + 620 X_4_8 + 491 X_4_9 + 40 X_5_0 + 325 X_5_1 + 349 X_5_2
  + 351 X_5_3 + 388 X_5_4 + 431 X_5_6 + 142 X_5_7 + 234 X_5_8 + 442 X_5_9 + 427 X_6_0 + 474 X_6_1
  + 220 X_6_2 + 271 X_6_3 + 253 X_6_4 + 431 X_6_5 + 362 X_6_7 + 653 X_6_8 + 274 X_6_9 + 109 X_7_0
  + 203 X_7_1 + 360 X_7_2 + 215 X_7_3 + 255 X_7_4 + 142 X_7_5 + 362 X_7_6 + 365 X_7_8 + 462 X_7_9
  + 258 X_8_0 + 503 X_8_1 + 523 X_8_2 + 581 X_8_3 + 620 X_8_4 + 234 X_8_5 + 653 X_8_6 + 365 X_8_7
  + 595 X_8_9 + 462 X_9_0 + 643 X_9_1 + 101 X_9_2 + 492 X_9_3 + 491 X_9_4 + 442 X_9_5 + 274 X_9_6
  + 462 X_9_7 + 595 X_9_8
  <= 6
Bounds
 1 <= U1 <= 9
 1 <= U2 <= 9
 1 <= U3 <= 9
 1 <= U4 <= 9
 1 <= U5 <= 9
 1 <= U6 <= 9
 1 <= U7 <= 9
 1 <= U8 <= 9
 1 <= U9 <= 9
Binary
 X_0_1
 X_0_2
 X_0_3
 X_0_4
 X_0_5
 X_0_6
 X_0_7
 X_0_8
 X_0_9
 X_1_0
 X_1_2
 X_1_3
 X_1_4
 X_1_5
 X_1_6
 X_1_7
 X_1_8
 X_1_9
 X_2_0
 X_2_1
 X_2_3
 X_2_4
 X_2_5
 X_2_6
 X_2_7
 X_2_8
 X_2_9
 X_3_0
 X_3_1
 X_3_2
 X_3_4
 X_3_5
 X_3_6
 X_3_7
 X_3_8
 X_3_9
 X_4_0
 X_4_1
 X_4_2
 X_4_3
 X_4_5
 X_4_6
 X_4_7
 X_4_8
 X_4_9
 X_5_0
 X_5_1
 X_5_2
 X_5_3
 X_5_4
 X_5_6
 X_5_7
 X_5_8
 X_5_9
 X_6_0
 X_6_1
 X_6_2
 X_6_3
 X_6_4
 X_6_5
 X_6_7
 X_6_8
 X_6_9
 X_7_0
 X_7_1
 X_7_2
 X_7_3
 X_7_4
 X_7_5
 X_7_6
 X_7_8
 X_7_9
 X_8_0
 X_8_1
 X_8_2
 X_8_3
 X_8_4
 X_8_5
 X_8_6
 X_8_7
 X_8_9
 X_9_0
 X_9_1
 X_9_2
 X_9_3
 X_9_4
 X_9_5
 X_9_6
 X_9_7
 X_9_8
End
